Sat 19 May 19:40:40 CEST 2018
CPXPARAM_TimeLimit                               45
CPXPARAM_Threads                                 1
CPXPARAM_MIP_Strategy_CallbackReducedLP          0
Tried aggregator 3 times.
MIP Presolve eliminated 132 rows and 134 columns.
Aggregator did 88 substitutions.
Reduced MIP has 136 rows, 135 columns, and 312 nonzeros.
Reduced MIP has 132 binaries, 3 generals, 0 SOSs, and 22 indicators.
Presolve time = 0.00 sec. (0.61 ticks)
Found incumbent of value 2.000000 after 0.00 sec. (1.26 ticks)
Probing time = 0.00 sec. (0.42 ticks)
Cover probing fixed 0 vars, tightened 3 bounds.
Tried aggregator 3 times.
MIP Presolve modified 44 coefficients.
Aggregator did 66 substitutions.
Reduced MIP has 92 rows, 69 columns, and 224 nonzeros.
Reduced MIP has 66 binaries, 3 generals, 0 SOSs, and 0 indicators.
Presolve time = 0.00 sec. (0.40 ticks)
Probing time = 0.00 sec. (0.17 ticks)
Tried aggregator 2 times.
Aggregator did 22 substitutions.
Reduced MIP has 70 rows, 47 columns, and 180 nonzeros.
Reduced MIP has 44 binaries, 3 generals, 0 SOSs, and 0 indicators.
Presolve time = 0.00 sec. (0.23 ticks)
Probing time = 0.00 sec. (0.09 ticks)
Tried aggregator 1 time.
Reduced MIP has 70 rows, 47 columns, and 180 nonzeros.
Reduced MIP has 44 binaries, 3 generals, 0 SOSs, and 0 indicators.
Presolve time = 0.00 sec. (0.17 ticks)
Probing time = 0.00 sec. (0.09 ticks)
Clique table members: 24.
MIP emphasis: balance optimality and feasibility.
MIP search method: dynamic search.
Parallel mode: none, using 1 thread.
Root relaxation solution time = 0.00 sec. (0.08 ticks)

        Nodes                                         Cuts/
   Node  Left     Objective  IInf  Best Integer    Best Bound    ItCnt     Gap

*     0+    0                            2.0000        1.0000            50.00%
*     0     0      integral     0        1.0000        1.0000       23    0.00%
Elapsed time = 0.01 sec. (3.22 ticks, tree = 0.00 MB, solutions = 2)

Root node processing (before b&c):
  Real time             =    0.01 sec. (3.23 ticks)
Sequential b&c:
  Real time             =    0.00 sec. (0.00 ticks)
                          ------------
Total (root+branch&cut) =    0.01 sec. (3.23 ticks)
  | W
L | 0 1 2 3 4 5 6 7 8 9 10 
----------------------------
0 | 1 2 . . . . . . . .  . 
1 | . . . . . . . . . .  . 

Boxes' corners:      (w,l)
    Box 1 is at 
        top left     (0,0)
        bottom right (0,0)

    Box 2 is at 
        top left     (1,0)
        bottom right (1,0)

    Roll length used: 1
In 0.01 seconds
